p cnf 1020 2631
e 1 2 3 4 5 6 7 0
a 8 9 10 11 14 0
e 12 13 15 16 17 18 19 20 21 0
a 22 23 24 25 28 0
e 26 27 29 30 31 32 33 34 35 0
a 36 37 38 39 42 0
e 40 41 43 44 45 46 47 48 49 0
a 50 51 52 53 56 0
e 54 55 57 58 59 60 61 62 63 0
a 64 65 66 67 70 0
e 68 69 71 72 73 74 75 76 77 0
a 78 79 80 81 84 0
e 82 83 85 86 87 88 89 90 91 0
a 92 93 94 95 98 0
e 96 97 99 100 101 102 103 104 105 0
a 106 107 108 109 112 0
e 110 111 113 114 115 116 117 118 119 120 121 122 0
a 123 124 125 126 0
e 127 128 129 0
a 130 131 132 133 0
e 134 135 136 137 138 139 140 141 142 143 144 145 146 147 148 149 150 151 152 153 154 155 156 157 158 159 160 161 162 163 164 165 166 167 168 169 0
e 170 171 172 173 174 175 176 177 178 179 180 181 182 183 184 185 186 187 188 189 190 191 192 193 194 195 196 197 198 199 200 201 202 203 204 205 206 207 208 209 210 211 212 213 214 215 216 217 218 219 220 221 222 223 224 225 226 227 228 229 230 231 232 233 234 235 236 237 238 239 240 241 242 243 244 245 246 247 248 249 250 251 252 253 254 255 256 257 258 259 260 261 262 263 264 265 266 267 268 269 270 271 272 273 274 275 276 277 278 279 280 281 282 283 284 285 286 287 288 289 290 291 292 293 294 295 296 297 298 299 300 301 302 303 304 305 306 307 308 309 310 311 312 313 314 315 316 317 318 319 320 321 322 323 324 325 326 327 328 329 330 331 332 333 334 335 336 337 338 339 340 341 342 343 344 345 346 347 348 349 350 351 352 353 354 355 356 357 358 359 360 361 362 363 364 365 366 367 368 369 370 371 372 373 374 375 376 377 378 379 380 381 382 383 384 385 386 387 388 389 390 391 392 393 394 395 396 397 398 399 400 401 402 403 404 405 406 407 408 409 410 411 412 413 414 415 416 417 418 419 420 421 422 423 424 425 426 427 428 429 430 431 432 433 434 435 436 437 438 439 440 441 442 443 444 445 446 447 448 449 450 451 452 453 454 455 456 457 458 459 460 461 462 463 464 465 466 467 468 469 470 471 472 473 474 475 476 477 478 479 480 481 482 483 484 485 486 487 488 489 490 491 492 493 494 495 496 497 498 499 500 501 502 503 504 505 506 507 508 509 510 511 512 513 514 515 516 517 518 519 520 521 522 523 524 525 526 527 528 529 530 531 532 533 534 535 536 537 538 539 540 541 542 543 544 545 546 547 548 549 550 551 552 553 554 555 556 557 558 559 560 561 562 563 564 565 566 567 568 569 570 571 572 573 574 575 576 577 578 579 580 581 582 583 584 585 586 587 588 589 590 591 592 593 594 595 596 597 598 599 600 601 602 603 604 605 606 607 608 609 610 611 612 613 614 615 616 617 618 619 620 621 622 623 624 625 626 627 628 629 630 631 632 633 634 635 636 637 638 639 640 641 642 643 644 645 646 647 648 649 650 651 652 653 654 655 656 657 658 659 660 661 662 663 664 665 666 667 668 669 670 671 672 673 674 675 676 677 678 679 680 681 682 683 684 685 686 687 688 689 690 691 692 693 694 695 696 697 698 699 700 701 702 703 704 705 706 707 708 709 710 711 712 713 714 715 716 717 718 719 720 721 722 723 724 725 726 727 728 729 730 731 732 733 734 735 736 737 738 739 740 741 742 743 744 745 746 747 748 749 750 751 752 753 754 755 756 757 758 759 760 761 762 763 764 765 766 767 768 769 770 771 772 773 774 775 776 777 778 779 780 781 782 783 784 785 786 787 788 789 790 791 792 793 794 795 796 797 798 799 800 801 802 803 804 805 806 807 808 809 810 811 812 813 814 815 816 817 818 819 820 821 822 823 824 825 826 827 828 829 830 831 832 833 834 835 836 837 838 839 840 841 842 843 844 845 846 847 848 849 850 851 852 853 854 855 856 857 858 859 860 861 862 863 864 865 866 867 868 869 870 871 872 873 874 875 876 877 878 879 880 881 882 883 884 885 886 887 888 889 890 891 892 893 894 895 896 897 898 899 900 901 902 903 904 905 906 907 908 909 910 911 912 913 914 915 916 917 918 919 920 921 922 923 924 925 926 927 928 929 930 931 932 933 934 935 936 937 938 939 940 941 942 943 944 945 946 947 948 949 950 951 952 953 954 955 956 957 958 959 960 961 962 963 964 965 966 967 968 969 970 971 972 973 974 975 976 977 978 979 980 981 982 983 984 985 986 987 988 989 990 991 992 993 994 995 996 997 998 999 1000 1001 1002 1003 1004 1005 1006 1007 1008 1009 1010 1011 1012 1013 1014 1015 1016 1017 1018 1019 1020 0
134 170 0
-136 170 0
-134 136 -170 0
136 171 0
-134 171 0
-136 134 -171 0
170 -172 0
171 -172 0
-170 -171 172 0
135 173 0
-137 173 0
-135 137 -173 0
137 174 0
-135 174 0
-137 135 -174 0
173 -175 0
174 -175 0
-173 -174 175 0
172 -176 0
175 -176 0
-172 -175 176 0
2 177 0
-130 177 0
-2 130 -177 0
130 178 0
-2 178 0
-130 2 -178 0
177 -179 0
178 -179 0
-177 -178 179 0
3 180 0
-131 180 0
-3 131 -180 0
131 181 0
-3 181 0
-131 3 -181 0
180 -182 0
181 -182 0
-180 -181 182 0
179 -183 0
182 -183 0
-179 -182 183 0
4 184 0
-132 184 0
-4 132 -184 0
132 185 0
-4 185 0
-132 4 -185 0
184 -186 0
185 -186 0
-184 -185 186 0
5 187 0
-133 187 0
-5 133 -187 0
133 188 0
-5 188 0
-133 5 -188 0
187 -189 0
188 -189 0
-187 -188 189 0
186 -190 0
189 -190 0
-186 -189 190 0
183 -191 0
190 -191 0
-183 -190 191 0
191 192 0
134 192 0
-191 -134 -192 0
136 -193 0
-137 -193 0
-136 137 193 0
191 194 0
-193 194 0
-191 193 -194 0
-191 195 0
-176 195 0
191 176 -195 0
192 -196 0
194 -196 0
195 -196 0
-192 -194 -195 196 0
-1 197 0
-196 197 0
1 196 -197 0
-1 -198 0
197 -198 0
1 -197 198 0
136 199 0
-138 199 0
-136 138 -199 0
138 200 0
-136 200 0
-138 136 -200 0
199 -201 0
200 -201 0
-199 -200 201 0
137 202 0
-139 202 0
-137 139 -202 0
139 203 0
-137 203 0
-139 137 -203 0
202 -204 0
203 -204 0
-202 -203 204 0
201 -205 0
204 -205 0
-201 -204 205 0
206 0
12 207 0
7 207 0
-12 -7 -207 0
-7 208 0
-12 208 0
7 12 -208 0
207 -209 0
208 -209 0
-207 -208 209 0
8 210 0
-130 210 0
-8 130 -210 0
130 211 0
-8 211 0
-130 8 -211 0
210 -212 0
211 -212 0
-210 -211 212 0
9 213 0
-131 213 0
-9 131 -213 0
131 214 0
-9 214 0
-131 9 -214 0
213 -215 0
214 -215 0
-213 -214 215 0
212 -216 0
215 -216 0
-212 -215 216 0
10 217 0
-132 217 0
-10 132 -217 0
132 218 0
-10 218 0
-132 10 -218 0
217 -219 0
218 -219 0
-217 -218 219 0
11 220 0
-133 220 0
-11 133 -220 0
133 221 0
-11 221 0
-133 11 -221 0
220 -222 0
221 -222 0
-220 -221 222 0
219 -223 0
222 -223 0
-219 -222 223 0
216 -224 0
223 -224 0
-216 -223 224 0
-136 225 0
-13 225 0
136 13 -225 0
13 226 0
136 226 0
-13 -136 -226 0
225 -227 0
226 -227 0
-225 -226 227 0
-7 228 0
224 228 0
-227 228 0
7 -224 227 -228 0
12 -229 0
13 -229 0
-12 -13 229 0
138 -230 0
139 -230 0
-138 -139 230 0
224 231 0
-230 231 0
-224 230 -231 0
-224 232 0
-205 232 0
224 205 -232 0
231 -233 0
232 -233 0
-231 -232 233 0
229 -234 0
-7 -234 0
-229 7 234 0
234 235 0
-233 235 0
-234 233 -235 0
209 -236 0
228 -236 0
235 -236 0
-7 -236 0
-209 -228 -235 7 236 0
138 237 0
-140 237 0
-138 140 -237 0
140 238 0
-138 238 0
-140 138 -238 0
237 -239 0
238 -239 0
-237 -238 239 0
139 240 0
-141 240 0
-139 141 -240 0
141 241 0
-139 241 0
-141 139 -241 0
240 -242 0
241 -242 0
-240 -241 242 0
239 -243 0
242 -243 0
-239 -242 243 0
16 244 0
-130 244 0
-16 130 -244 0
130 245 0
-16 245 0
-130 16 -245 0
244 -246 0
245 -246 0
-244 -245 246 0
17 247 0
-131 247 0
-17 131 -247 0
131 248 0
-17 248 0
-131 17 -248 0
247 -249 0
248 -249 0
-247 -248 249 0
246 -250 0
249 -250 0
-246 -249 250 0
18 251 0
-132 251 0
-18 132 -251 0
132 252 0
-18 252 0
-132 18 -252 0
251 -253 0
252 -253 0
-251 -252 253 0
19 254 0
-133 254 0
-19 133 -254 0
133 255 0
-19 255 0
-133 19 -255 0
254 -256 0
255 -256 0
-254 -255 256 0
253 -257 0
256 -257 0
-253 -256 257 0
250 -258 0
257 -258 0
-250 -257 258 0
258 259 0
138 259 0
-258 -138 -259 0
140 -260 0
-141 -260 0
-140 141 260 0
258 261 0
-260 261 0
-258 260 -261 0
-258 262 0
-243 262 0
258 243 -262 0
259 -263 0
261 -263 0
262 -263 0
-259 -261 -262 263 0
-15 264 0
-263 264 0
15 263 -264 0
-15 -265 0
264 -265 0
15 -264 265 0
140 266 0
-142 266 0
-140 142 -266 0
142 267 0
-140 267 0
-142 140 -267 0
266 -268 0
267 -268 0
-266 -267 268 0
141 269 0
-143 269 0
-141 143 -269 0
143 270 0
-141 270 0
-143 141 -270 0
269 -271 0
270 -271 0
-269 -270 271 0
268 -272 0
271 -272 0
-268 -271 272 0
26 273 0
21 273 0
-26 -21 -273 0
-21 274 0
-26 274 0
21 26 -274 0
273 -275 0
274 -275 0
-273 -274 275 0
22 276 0
-130 276 0
-22 130 -276 0
130 277 0
-22 277 0
-130 22 -277 0
276 -278 0
277 -278 0
-276 -277 278 0
23 279 0
-131 279 0
-23 131 -279 0
131 280 0
-23 280 0
-131 23 -280 0
279 -281 0
280 -281 0
-279 -280 281 0
278 -282 0
281 -282 0
-278 -281 282 0
24 283 0
-132 283 0
-24 132 -283 0
132 284 0
-24 284 0
-132 24 -284 0
283 -285 0
284 -285 0
-283 -284 285 0
25 286 0
-133 286 0
-25 133 -286 0
133 287 0
-25 287 0
-133 25 -287 0
286 -288 0
287 -288 0
-286 -287 288 0
285 -289 0
288 -289 0
-285 -288 289 0
282 -290 0
289 -290 0
-282 -289 290 0
-140 291 0
-27 291 0
140 27 -291 0
27 292 0
140 292 0
-27 -140 -292 0
291 -293 0
292 -293 0
-291 -292 293 0
-21 294 0
290 294 0
-293 294 0
21 -290 293 -294 0
26 -295 0
27 -295 0
-26 -27 295 0
142 -296 0
143 -296 0
-142 -143 296 0
290 297 0
-296 297 0
-290 296 -297 0
-290 298 0
-272 298 0
290 272 -298 0
297 -299 0
298 -299 0
-297 -298 299 0
295 -300 0
-21 -300 0
-295 21 300 0
300 301 0
-299 301 0
-300 299 -301 0
275 -302 0
294 -302 0
301 -302 0
-21 -302 0
-275 -294 -301 21 302 0
142 303 0
-144 303 0
-142 144 -303 0
144 304 0
-142 304 0
-144 142 -304 0
303 -305 0
304 -305 0
-303 -304 305 0
143 306 0
-145 306 0
-143 145 -306 0
145 307 0
-143 307 0
-145 143 -307 0
306 -308 0
307 -308 0
-306 -307 308 0
305 -309 0
308 -309 0
-305 -308 309 0
30 310 0
-130 310 0
-30 130 -310 0
130 311 0
-30 311 0
-130 30 -311 0
310 -312 0
311 -312 0
-310 -311 312 0
31 313 0
-131 313 0
-31 131 -313 0
131 314 0
-31 314 0
-131 31 -314 0
313 -315 0
314 -315 0
-313 -314 315 0
312 -316 0
315 -316 0
-312 -315 316 0
32 317 0
-132 317 0
-32 132 -317 0
132 318 0
-32 318 0
-132 32 -318 0
317 -319 0
318 -319 0
-317 -318 319 0
33 320 0
-133 320 0
-33 133 -320 0
133 321 0
-33 321 0
-133 33 -321 0
320 -322 0
321 -322 0
-320 -321 322 0
319 -323 0
322 -323 0
-319 -322 323 0
316 -324 0
323 -324 0
-316 -323 324 0
324 325 0
142 325 0
-324 -142 -325 0
144 -326 0
-145 -326 0
-144 145 326 0
324 327 0
-326 327 0
-324 326 -327 0
-324 328 0
-309 328 0
324 309 -328 0
325 -329 0
327 -329 0
328 -329 0
-325 -327 -328 329 0
-29 330 0
-329 330 0
29 329 -330 0
-29 -331 0
330 -331 0
29 -330 331 0
144 332 0
-146 332 0
-144 146 -332 0
146 333 0
-144 333 0
-146 144 -333 0
332 -334 0
333 -334 0
-332 -333 334 0
145 335 0
-147 335 0
-145 147 -335 0
147 336 0
-145 336 0
-147 145 -336 0
335 -337 0
336 -337 0
-335 -336 337 0
334 -338 0
337 -338 0
-334 -337 338 0
40 339 0
35 339 0
-40 -35 -339 0
-35 340 0
-40 340 0
35 40 -340 0
339 -341 0
340 -341 0
-339 -340 341 0
36 342 0
-130 342 0
-36 130 -342 0
130 343 0
-36 343 0
-130 36 -343 0
342 -344 0
343 -344 0
-342 -343 344 0
37 345 0
-131 345 0
-37 131 -345 0
131 346 0
-37 346 0
-131 37 -346 0
345 -347 0
346 -347 0
-345 -346 347 0
344 -348 0
347 -348 0
-344 -347 348 0
38 349 0
-132 349 0
-38 132 -349 0
132 350 0
-38 350 0
-132 38 -350 0
349 -351 0
350 -351 0
-349 -350 351 0
39 352 0
-133 352 0
-39 133 -352 0
133 353 0
-39 353 0
-133 39 -353 0
352 -354 0
353 -354 0
-352 -353 354 0
351 -355 0
354 -355 0
-351 -354 355 0
348 -356 0
355 -356 0
-348 -355 356 0
-144 357 0
-41 357 0
144 41 -357 0
41 358 0
144 358 0
-41 -144 -358 0
357 -359 0
358 -359 0
-357 -358 359 0
-35 360 0
356 360 0
-359 360 0
35 -356 359 -360 0
40 -361 0
41 -361 0
-40 -41 361 0
146 -362 0
147 -362 0
-146 -147 362 0
356 363 0
-362 363 0
-356 362 -363 0
-356 364 0
-338 364 0
356 338 -364 0
363 -365 0
364 -365 0
-363 -364 365 0
361 -366 0
-35 -366 0
-361 35 366 0
366 367 0
-365 367 0
-366 365 -367 0
341 -368 0
360 -368 0
367 -368 0
-35 -368 0
-341 -360 -367 35 368 0
146 369 0
-148 369 0
-146 148 -369 0
148 370 0
-146 370 0
-148 146 -370 0
369 -371 0
370 -371 0
-369 -370 371 0
147 372 0
-149 372 0
-147 149 -372 0
149 373 0
-147 373 0
-149 147 -373 0
372 -374 0
373 -374 0
-372 -373 374 0
371 -375 0
374 -375 0
-371 -374 375 0
44 376 0
-130 376 0
-44 130 -376 0
130 377 0
-44 377 0
-130 44 -377 0
376 -378 0
377 -378 0
-376 -377 378 0
45 379 0
-131 379 0
-45 131 -379 0
131 380 0
-45 380 0
-131 45 -380 0
379 -381 0
380 -381 0
-379 -380 381 0
378 -382 0
381 -382 0
-378 -381 382 0
46 383 0
-132 383 0
-46 132 -383 0
132 384 0
-46 384 0
-132 46 -384 0
383 -385 0
384 -385 0
-383 -384 385 0
47 386 0
-133 386 0
-47 133 -386 0
133 387 0
-47 387 0
-133 47 -387 0
386 -388 0
387 -388 0
-386 -387 388 0
385 -389 0
388 -389 0
-385 -388 389 0
382 -390 0
389 -390 0
-382 -389 390 0
390 391 0
146 391 0
-390 -146 -391 0
148 -392 0
-149 -392 0
-148 149 392 0
390 393 0
-392 393 0
-390 392 -393 0
-390 394 0
-375 394 0
390 375 -394 0
391 -395 0
393 -395 0
394 -395 0
-391 -393 -394 395 0
-43 396 0
-395 396 0
43 395 -396 0
-43 -397 0
396 -397 0
43 -396 397 0
148 398 0
-150 398 0
-148 150 -398 0
150 399 0
-148 399 0
-150 148 -399 0
398 -400 0
399 -400 0
-398 -399 400 0
149 401 0
-151 401 0
-149 151 -401 0
151 402 0
-149 402 0
-151 149 -402 0
401 -403 0
402 -403 0
-401 -402 403 0
400 -404 0
403 -404 0
-400 -403 404 0
54 405 0
49 405 0
-54 -49 -405 0
-49 406 0
-54 406 0
49 54 -406 0
405 -407 0
406 -407 0
-405 -406 407 0
50 408 0
-130 408 0
-50 130 -408 0
130 409 0
-50 409 0
-130 50 -409 0
408 -410 0
409 -410 0
-408 -409 410 0
51 411 0
-131 411 0
-51 131 -411 0
131 412 0
-51 412 0
-131 51 -412 0
411 -413 0
412 -413 0
-411 -412 413 0
410 -414 0
413 -414 0
-410 -413 414 0
52 415 0
-132 415 0
-52 132 -415 0
132 416 0
-52 416 0
-132 52 -416 0
415 -417 0
416 -417 0
-415 -416 417 0
53 418 0
-133 418 0
-53 133 -418 0
133 419 0
-53 419 0
-133 53 -419 0
418 -420 0
419 -420 0
-418 -419 420 0
417 -421 0
420 -421 0
-417 -420 421 0
414 -422 0
421 -422 0
-414 -421 422 0
-148 423 0
-55 423 0
148 55 -423 0
55 424 0
148 424 0
-55 -148 -424 0
423 -425 0
424 -425 0
-423 -424 425 0
-49 426 0
422 426 0
-425 426 0
49 -422 425 -426 0
54 -427 0
55 -427 0
-54 -55 427 0
150 -428 0
151 -428 0
-150 -151 428 0
422 429 0
-428 429 0
-422 428 -429 0
-422 430 0
-404 430 0
422 404 -430 0
429 -431 0
430 -431 0
-429 -430 431 0
427 -432 0
-49 -432 0
-427 49 432 0
432 433 0
-431 433 0
-432 431 -433 0
407 -434 0
426 -434 0
433 -434 0
-49 -434 0
-407 -426 -433 49 434 0
150 435 0
-152 435 0
-150 152 -435 0
152 436 0
-150 436 0
-152 150 -436 0
435 -437 0
436 -437 0
-435 -436 437 0
151 438 0
-153 438 0
-151 153 -438 0
153 439 0
-151 439 0
-153 151 -439 0
438 -440 0
439 -440 0
-438 -439 440 0
437 -441 0
440 -441 0
-437 -440 441 0
58 442 0
-130 442 0
-58 130 -442 0
130 443 0
-58 443 0
-130 58 -443 0
442 -444 0
443 -444 0
-442 -443 444 0
59 445 0
-131 445 0
-59 131 -445 0
131 446 0
-59 446 0
-131 59 -446 0
445 -447 0
446 -447 0
-445 -446 447 0
444 -448 0
447 -448 0
-444 -447 448 0
60 449 0
-132 449 0
-60 132 -449 0
132 450 0
-60 450 0
-132 60 -450 0
449 -451 0
450 -451 0
-449 -450 451 0
61 452 0
-133 452 0
-61 133 -452 0
133 453 0
-61 453 0
-133 61 -453 0
452 -454 0
453 -454 0
-452 -453 454 0
451 -455 0
454 -455 0
-451 -454 455 0
448 -456 0
455 -456 0
-448 -455 456 0
456 457 0
150 457 0
-456 -150 -457 0
152 -458 0
-153 -458 0
-152 153 458 0
456 459 0
-458 459 0
-456 458 -459 0
-456 460 0
-441 460 0
456 441 -460 0
457 -461 0
459 -461 0
460 -461 0
-457 -459 -460 461 0
-57 462 0
-461 462 0
57 461 -462 0
-57 -463 0
462 -463 0
57 -462 463 0
152 464 0
-154 464 0
-152 154 -464 0
154 465 0
-152 465 0
-154 152 -465 0
464 -466 0
465 -466 0
-464 -465 466 0
153 467 0
-155 467 0
-153 155 -467 0
155 468 0
-153 468 0
-155 153 -468 0
467 -469 0
468 -469 0
-467 -468 469 0
466 -470 0
469 -470 0
-466 -469 470 0
68 471 0
63 471 0
-68 -63 -471 0
-63 472 0
-68 472 0
63 68 -472 0
471 -473 0
472 -473 0
-471 -472 473 0
64 474 0
-130 474 0
-64 130 -474 0
130 475 0
-64 475 0
-130 64 -475 0
474 -476 0
475 -476 0
-474 -475 476 0
65 477 0
-131 477 0
-65 131 -477 0
131 478 0
-65 478 0
-131 65 -478 0
477 -479 0
478 -479 0
-477 -478 479 0
476 -480 0
479 -480 0
-476 -479 480 0
66 481 0
-132 481 0
-66 132 -481 0
132 482 0
-66 482 0
-132 66 -482 0
481 -483 0
482 -483 0
-481 -482 483 0
67 484 0
-133 484 0
-67 133 -484 0
133 485 0
-67 485 0
-133 67 -485 0
484 -486 0
485 -486 0
-484 -485 486 0
483 -487 0
486 -487 0
-483 -486 487 0
480 -488 0
487 -488 0
-480 -487 488 0
-152 489 0
-69 489 0
152 69 -489 0
69 490 0
152 490 0
-69 -152 -490 0
489 -491 0
490 -491 0
-489 -490 491 0
-63 492 0
488 492 0
-491 492 0
63 -488 491 -492 0
68 -493 0
69 -493 0
-68 -69 493 0
154 -494 0
155 -494 0
-154 -155 494 0
488 495 0
-494 495 0
-488 494 -495 0
-488 496 0
-470 496 0
488 470 -496 0
495 -497 0
496 -497 0
-495 -496 497 0
493 -498 0
-63 -498 0
-493 63 498 0
498 499 0
-497 499 0
-498 497 -499 0
473 -500 0
492 -500 0
499 -500 0
-63 -500 0
-473 -492 -499 63 500 0
154 501 0
-156 501 0
-154 156 -501 0
156 502 0
-154 502 0
-156 154 -502 0
501 -503 0
502 -503 0
-501 -502 503 0
155 504 0
-157 504 0
-155 157 -504 0
157 505 0
-155 505 0
-157 155 -505 0
504 -506 0
505 -506 0
-504 -505 506 0
503 -507 0
506 -507 0
-503 -506 507 0
72 508 0
-130 508 0
-72 130 -508 0
130 509 0
-72 509 0
-130 72 -509 0
508 -510 0
509 -510 0
-508 -509 510 0
73 511 0
-131 511 0
-73 131 -511 0
131 512 0
-73 512 0
-131 73 -512 0
511 -513 0
512 -513 0
-511 -512 513 0
510 -514 0
513 -514 0
-510 -513 514 0
74 515 0
-132 515 0
-74 132 -515 0
132 516 0
-74 516 0
-132 74 -516 0
515 -517 0
516 -517 0
-515 -516 517 0
75 518 0
-133 518 0
-75 133 -518 0
133 519 0
-75 519 0
-133 75 -519 0
518 -520 0
519 -520 0
-518 -519 520 0
517 -521 0
520 -521 0
-517 -520 521 0
514 -522 0
521 -522 0
-514 -521 522 0
522 523 0
154 523 0
-522 -154 -523 0
156 -524 0
-157 -524 0
-156 157 524 0
522 525 0
-524 525 0
-522 524 -525 0
-522 526 0
-507 526 0
522 507 -526 0
523 -527 0
525 -527 0
526 -527 0
-523 -525 -526 527 0
-71 528 0
-527 528 0
71 527 -528 0
-71 -529 0
528 -529 0
71 -528 529 0
156 530 0
-158 530 0
-156 158 -530 0
158 531 0
-156 531 0
-158 156 -531 0
530 -532 0
531 -532 0
-530 -531 532 0
157 533 0
-159 533 0
-157 159 -533 0
159 534 0
-157 534 0
-159 157 -534 0
533 -535 0
534 -535 0
-533 -534 535 0
532 -536 0
535 -536 0
-532 -535 536 0
82 537 0
77 537 0
-82 -77 -537 0
-77 538 0
-82 538 0
77 82 -538 0
537 -539 0
538 -539 0
-537 -538 539 0
78 540 0
-130 540 0
-78 130 -540 0
130 541 0
-78 541 0
-130 78 -541 0
540 -542 0
541 -542 0
-540 -541 542 0
79 543 0
-131 543 0
-79 131 -543 0
131 544 0
-79 544 0
-131 79 -544 0
543 -545 0
544 -545 0
-543 -544 545 0
542 -546 0
545 -546 0
-542 -545 546 0
80 547 0
-132 547 0
-80 132 -547 0
132 548 0
-80 548 0
-132 80 -548 0
547 -549 0
548 -549 0
-547 -548 549 0
81 550 0
-133 550 0
-81 133 -550 0
133 551 0
-81 551 0
-133 81 -551 0
550 -552 0
551 -552 0
-550 -551 552 0
549 -553 0
552 -553 0
-549 -552 553 0
546 -554 0
553 -554 0
-546 -553 554 0
-156 555 0
-83 555 0
156 83 -555 0
83 556 0
156 556 0
-83 -156 -556 0
555 -557 0
556 -557 0
-555 -556 557 0
-77 558 0
554 558 0
-557 558 0
77 -554 557 -558 0
82 -559 0
83 -559 0
-82 -83 559 0
158 -560 0
159 -560 0
-158 -159 560 0
554 561 0
-560 561 0
-554 560 -561 0
-554 562 0
-536 562 0
554 536 -562 0
561 -563 0
562 -563 0
-561 -562 563 0
559 -564 0
-77 -564 0
-559 77 564 0
564 565 0
-563 565 0
-564 563 -565 0
539 -566 0
558 -566 0
565 -566 0
-77 -566 0
-539 -558 -565 77 566 0
158 567 0
-160 567 0
-158 160 -567 0
160 568 0
-158 568 0
-160 158 -568 0
567 -569 0
568 -569 0
-567 -568 569 0
159 570 0
-161 570 0
-159 161 -570 0
161 571 0
-159 571 0
-161 159 -571 0
570 -572 0
571 -572 0
-570 -571 572 0
569 -573 0
572 -573 0
-569 -572 573 0
86 574 0
-130 574 0
-86 130 -574 0
130 575 0
-86 575 0
-130 86 -575 0
574 -576 0
575 -576 0
-574 -575 576 0
87 577 0
-131 577 0
-87 131 -577 0
131 578 0
-87 578 0
-131 87 -578 0
577 -579 0
578 -579 0
-577 -578 579 0
576 -580 0
579 -580 0
-576 -579 580 0
88 581 0
-132 581 0
-88 132 -581 0
132 582 0
-88 582 0
-132 88 -582 0
581 -583 0
582 -583 0
-581 -582 583 0
89 584 0
-133 584 0
-89 133 -584 0
133 585 0
-89 585 0
-133 89 -585 0
584 -586 0
585 -586 0
-584 -585 586 0
583 -587 0
586 -587 0
-583 -586 587 0
580 -588 0
587 -588 0
-580 -587 588 0
588 589 0
158 589 0
-588 -158 -589 0
160 -590 0
-161 -590 0
-160 161 590 0
588 591 0
-590 591 0
-588 590 -591 0
-588 592 0
-573 592 0
588 573 -592 0
589 -593 0
591 -593 0
592 -593 0
-589 -591 -592 593 0
-85 594 0
-593 594 0
85 593 -594 0
-85 -595 0
594 -595 0
85 -594 595 0
160 596 0
-162 596 0
-160 162 -596 0
162 597 0
-160 597 0
-162 160 -597 0
596 -598 0
597 -598 0
-596 -597 598 0
161 599 0
-163 599 0
-161 163 -599 0
163 600 0
-161 600 0
-163 161 -600 0
599 -601 0
600 -601 0
-599 -600 601 0
598 -602 0
601 -602 0
-598 -601 602 0
96 603 0
91 603 0
-96 -91 -603 0
-91 604 0
-96 604 0
91 96 -604 0
603 -605 0
604 -605 0
-603 -604 605 0
92 606 0
-130 606 0
-92 130 -606 0
130 607 0
-92 607 0
-130 92 -607 0
606 -608 0
607 -608 0
-606 -607 608 0
93 609 0
-131 609 0
-93 131 -609 0
131 610 0
-93 610 0
-131 93 -610 0
609 -611 0
610 -611 0
-609 -610 611 0
608 -612 0
611 -612 0
-608 -611 612 0
94 613 0
-132 613 0
-94 132 -613 0
132 614 0
-94 614 0
-132 94 -614 0
613 -615 0
614 -615 0
-613 -614 615 0
95 616 0
-133 616 0
-95 133 -616 0
133 617 0
-95 617 0
-133 95 -617 0
616 -618 0
617 -618 0
-616 -617 618 0
615 -619 0
618 -619 0
-615 -618 619 0
612 -620 0
619 -620 0
-612 -619 620 0
-160 621 0
-97 621 0
160 97 -621 0
97 622 0
160 622 0
-97 -160 -622 0
621 -623 0
622 -623 0
-621 -622 623 0
-91 624 0
620 624 0
-623 624 0
91 -620 623 -624 0
96 -625 0
97 -625 0
-96 -97 625 0
162 -626 0
163 -626 0
-162 -163 626 0
620 627 0
-626 627 0
-620 626 -627 0
-620 628 0
-602 628 0
620 602 -628 0
627 -629 0
628 -629 0
-627 -628 629 0
625 -630 0
-91 -630 0
-625 91 630 0
630 631 0
-629 631 0
-630 629 -631 0
605 -632 0
624 -632 0
631 -632 0
-91 -632 0
-605 -624 -631 91 632 0
162 633 0
-164 633 0
-162 164 -633 0
164 634 0
-162 634 0
-164 162 -634 0
633 -635 0
634 -635 0
-633 -634 635 0
163 636 0
-165 636 0
-163 165 -636 0
165 637 0
-163 637 0
-165 163 -637 0
636 -638 0
637 -638 0
-636 -637 638 0
635 -639 0
638 -639 0
-635 -638 639 0
100 640 0
-130 640 0
-100 130 -640 0
130 641 0
-100 641 0
-130 100 -641 0
640 -642 0
641 -642 0
-640 -641 642 0
101 643 0
-131 643 0
-101 131 -643 0
131 644 0
-101 644 0
-131 101 -644 0
643 -645 0
644 -645 0
-643 -644 645 0
642 -646 0
645 -646 0
-642 -645 646 0
102 647 0
-132 647 0
-102 132 -647 0
132 648 0
-102 648 0
-132 102 -648 0
647 -649 0
648 -649 0
-647 -648 649 0
103 650 0
-133 650 0
-103 133 -650 0
133 651 0
-103 651 0
-133 103 -651 0
650 -652 0
651 -652 0
-650 -651 652 0
649 -653 0
652 -653 0
-649 -652 653 0
646 -654 0
653 -654 0
-646 -653 654 0
654 655 0
162 655 0
-654 -162 -655 0
164 -656 0
-165 -656 0
-164 165 656 0
654 657 0
-656 657 0
-654 656 -657 0
-654 658 0
-639 658 0
654 639 -658 0
655 -659 0
657 -659 0
658 -659 0
-655 -657 -658 659 0
-99 660 0
-659 660 0
99 659 -660 0
-99 -661 0
660 -661 0
99 -660 661 0
164 662 0
-166 662 0
-164 166 -662 0
166 663 0
-164 663 0
-166 164 -663 0
662 -664 0
663 -664 0
-662 -663 664 0
165 665 0
-167 665 0
-165 167 -665 0
167 666 0
-165 666 0
-167 165 -666 0
665 -667 0
666 -667 0
-665 -666 667 0
664 -668 0
667 -668 0
-664 -667 668 0
110 669 0
105 669 0
-110 -105 -669 0
-105 670 0
-110 670 0
105 110 -670 0
669 -671 0
670 -671 0
-669 -670 671 0
106 672 0
-130 672 0
-106 130 -672 0
130 673 0
-106 673 0
-130 106 -673 0
672 -674 0
673 -674 0
-672 -673 674 0
107 675 0
-131 675 0
-107 131 -675 0
131 676 0
-107 676 0
-131 107 -676 0
675 -677 0
676 -677 0
-675 -676 677 0
674 -678 0
677 -678 0
-674 -677 678 0
108 679 0
-132 679 0
-108 132 -679 0
132 680 0
-108 680 0
-132 108 -680 0
679 -681 0
680 -681 0
-679 -680 681 0
109 682 0
-133 682 0
-109 133 -682 0
133 683 0
-109 683 0
-133 109 -683 0
682 -684 0
683 -684 0
-682 -683 684 0
681 -685 0
684 -685 0
-681 -684 685 0
678 -686 0
685 -686 0
-678 -685 686 0
-164 687 0
-111 687 0
164 111 -687 0
111 688 0
164 688 0
-111 -164 -688 0
687 -689 0
688 -689 0
-687 -688 689 0
-105 690 0
686 690 0
-689 690 0
105 -686 689 -690 0
110 -691 0
111 -691 0
-110 -111 691 0
166 -692 0
167 -692 0
-166 -167 692 0
686 693 0
-692 693 0
-686 692 -693 0
-686 694 0
-668 694 0
686 668 -694 0
693 -695 0
694 -695 0
-693 -694 695 0
691 -696 0
-105 -696 0
-691 105 696 0
696 697 0
-695 697 0
-696 695 -697 0
671 -698 0
690 -698 0
697 -698 0
-105 -698 0
-671 -690 -697 105 698 0
-113 699 0
-114 699 0
-115 699 0
-116 699 0
-117 699 0
118 699 0
113 114 115 116 117 -118 -699 0
166 700 0
-168 700 0
-166 168 -700 0
168 701 0
-166 701 0
-168 166 -701 0
700 -702 0
701 -702 0
-700 -701 702 0
167 703 0
-169 703 0
-167 169 -703 0
169 704 0
-167 704 0
-169 167 -704 0
703 -705 0
704 -705 0
-703 -704 705 0
702 -706 0
705 -706 0
-702 -705 706 0
-699 -707 0
706 -707 0
699 -706 707 0
119 708 0
-130 708 0
-119 130 -708 0
130 709 0
-119 709 0
-130 119 -709 0
708 -710 0
709 -710 0
-708 -709 710 0
120 711 0
-131 711 0
-120 131 -711 0
131 712 0
-120 712 0
-131 120 -712 0
711 -713 0
712 -713 0
-711 -712 713 0
710 -714 0
713 -714 0
-710 -713 714 0
121 715 0
-132 715 0
-121 132 -715 0
132 716 0
-121 716 0
-132 121 -716 0
715 -717 0
716 -717 0
-715 -716 717 0
122 718 0
-133 718 0
-122 133 -718 0
133 719 0
-122 719 0
-133 122 -719 0
718 -720 0
719 -720 0
-718 -719 720 0
717 -721 0
720 -721 0
-717 -720 721 0
714 -722 0
721 -722 0
-714 -721 722 0
168 -723 0
-169 -723 0
-168 169 723 0
722 724 0
-723 724 0
-722 723 -724 0
-725 0
-725 726 0
-122 726 0
725 122 -726 0
725 727 0
-122 727 0
-725 122 -727 0
122 728 0
-725 728 0
-122 725 -728 0
727 -729 0
728 -729 0
-727 -728 729 0
726 730 0
-121 730 0
-726 121 -730 0
121 731 0
-726 731 0
-121 726 -731 0
730 -732 0
731 -732 0
-730 -731 732 0
-732 733 0
-132 733 0
732 132 -733 0
132 734 0
732 734 0
-132 -732 -734 0
733 -735 0
734 -735 0
-733 -734 735 0
729 736 0
-133 736 0
-729 133 -736 0
133 737 0
-729 737 0
-133 729 -737 0
736 -738 0
737 -738 0
-736 -737 738 0
735 -739 0
738 -739 0
-735 -738 739 0
714 -740 0
739 -740 0
-714 -739 740 0
740 741 0
-723 741 0
-740 723 -741 0
-725 742 0
-120 742 0
725 120 -742 0
725 743 0
-120 743 0
-725 120 -743 0
120 744 0
-725 744 0
-120 725 -744 0
743 -745 0
744 -745 0
-743 -744 745 0
742 746 0
-119 746 0
-742 119 -746 0
119 747 0
-742 747 0
-119 742 -747 0
746 -748 0
747 -748 0
-746 -747 748 0
-748 749 0
-130 749 0
748 130 -749 0
130 750 0
748 750 0
-130 -748 -750 0
749 -751 0
750 -751 0
-749 -750 751 0
745 752 0
-131 752 0
-745 131 -752 0
131 753 0
-745 753 0
-131 745 -753 0
752 -754 0
753 -754 0
-752 -753 754 0
751 -755 0
754 -755 0
-751 -754 755 0
755 -756 0
721 -756 0
-755 -721 756 0
756 757 0
-723 757 0
-756 723 -757 0
755 -758 0
739 -758 0
-755 -739 758 0
758 759 0
-723 759 0
-758 723 -759 0
119 -760 0
-120 -760 0
-119 120 760 0
119 761 0
-760 761 0
-119 760 -761 0
121 -762 0
-122 -762 0
-121 122 762 0
121 763 0
-762 763 0
-121 762 -763 0
724 -764 0
741 -764 0
757 -764 0
759 -764 0
761 -764 0
763 -764 0
-724 -741 -757 -759 -761 -763 764 0
-127 -765 0
-128 -765 0
-129 -765 0
127 128 129 765 0
123 766 0
-130 766 0
-123 130 -766 0
130 767 0
-123 767 0
-130 123 -767 0
766 -768 0
767 -768 0
-766 -767 768 0
124 769 0
-131 769 0
-124 131 -769 0
131 770 0
-124 770 0
-131 124 -770 0
769 -771 0
770 -771 0
-769 -770 771 0
768 -772 0
771 -772 0
-768 -771 772 0
125 773 0
-132 773 0
-125 132 -773 0
132 774 0
-125 774 0
-132 125 -774 0
773 -775 0
774 -775 0
-773 -774 775 0
126 776 0
-133 776 0
-126 133 -776 0
133 777 0
-126 777 0
-133 126 -777 0
776 -778 0
777 -778 0
-776 -777 778 0
775 -779 0
778 -779 0
-775 -778 779 0
772 -780 0
779 -780 0
-772 -779 780 0
765 -781 0
780 -781 0
-765 -780 781 0
168 -782 0
169 -782 0
-168 -169 782 0
781 783 0
782 783 0
-781 -782 -783 0
-127 -784 0
-128 -784 0
129 -784 0
127 128 -129 784 0
-725 785 0
-126 785 0
725 126 -785 0
725 786 0
-126 786 0
-725 126 -786 0
126 787 0
-725 787 0
-126 725 -787 0
786 -788 0
787 -788 0
-786 -787 788 0
785 789 0
-125 789 0
-785 125 -789 0
125 790 0
-785 790 0
-125 785 -790 0
789 -791 0
790 -791 0
-789 -790 791 0
-791 792 0
-132 792 0
791 132 -792 0
132 793 0
791 793 0
-132 -791 -793 0
792 -794 0
793 -794 0
-792 -793 794 0
788 795 0
-133 795 0
-788 133 -795 0
133 796 0
-788 796 0
-133 788 -796 0
795 -797 0
796 -797 0
-795 -796 797 0
794 -798 0
797 -798 0
-794 -797 798 0
772 -799 0
798 -799 0
-772 -798 799 0
784 -800 0
799 -800 0
-784 -799 800 0
800 801 0
782 801 0
-800 -782 -801 0
-127 -802 0
128 -802 0
-129 -802 0
127 -128 129 802 0
-725 803 0
-124 803 0
725 124 -803 0
725 804 0
-124 804 0
-725 124 -804 0
124 805 0
-725 805 0
-124 725 -805 0
804 -806 0
805 -806 0
-804 -805 806 0
803 807 0
-123 807 0
-803 123 -807 0
123 808 0
-803 808 0
-123 803 -808 0
807 -809 0
808 -809 0
-807 -808 809 0
-809 810 0
-130 810 0
809 130 -810 0
130 811 0
809 811 0
-130 -809 -811 0
810 -812 0
811 -812 0
-810 -811 812 0
806 813 0
-131 813 0
-806 131 -813 0
131 814 0
-806 814 0
-131 806 -814 0
813 -815 0
814 -815 0
-813 -814 815 0
812 -816 0
815 -816 0
-812 -815 816 0
816 -817 0
779 -817 0
-816 -779 817 0
802 -818 0
817 -818 0
-802 -817 818 0
818 819 0
782 819 0
-818 -782 -819 0
-127 -820 0
128 -820 0
129 -820 0
127 -128 -129 820 0
816 -821 0
798 -821 0
-816 -798 821 0
820 -822 0
821 -822 0
-820 -821 822 0
822 823 0
782 823 0
-822 -782 -823 0
127 -824 0
-128 -824 0
-129 -824 0
-127 128 129 824 0
123 -825 0
-124 -825 0
-123 124 825 0
123 826 0
-825 826 0
-123 825 -826 0
127 -827 0
-128 -827 0
129 -827 0
-127 128 -129 827 0
125 -828 0
-126 -828 0
-125 126 828 0
125 829 0
-828 829 0
-125 828 -829 0
127 -830 0
-128 -830 0
-127 128 830 0
127 831 0
-830 831 0
-127 830 -831 0
783 -832 0
801 -832 0
819 -832 0
823 -832 0
831 -832 0
-783 -801 -819 -823 -831 832 0
-1 -833 0
-7 -833 0
-15 -833 0
-21 -833 0
-29 -833 0
-35 -833 0
-43 -833 0
-49 -833 0
-57 -833 0
-63 -833 0
-71 -833 0
-77 -833 0
-85 -833 0
-91 -833 0
-99 -833 0
-105 -833 0
-113 -833 0
1 7 15 21 29 35 43 49 57 63 71 77 85 91 99 105 113 833 0
707 -834 0
764 -834 0
-707 -764 834 0
691 -835 0
-112 -835 0
-691 112 835 0
835 836 0
-834 836 0
-835 834 -836 0
691 -837 0
112 -837 0
-691 -112 837 0
706 -838 0
832 -838 0
-706 -832 838 0
837 839 0
-838 839 0
-837 838 -839 0
698 -840 0
836 -840 0
839 -840 0
-698 -836 -839 840 0
-104 841 0
-840 841 0
104 840 -841 0
164 842 0
-168 842 0
-164 168 -842 0
168 843 0
-164 843 0
-168 164 -843 0
842 -844 0
843 -844 0
-842 -843 844 0
165 845 0
-169 845 0
-165 169 -845 0
169 846 0
-165 846 0
-169 165 -846 0
845 -847 0
846 -847 0
-845 -846 847 0
844 -848 0
847 -848 0
-844 -847 848 0
848 -849 0
764 -849 0
-848 -764 849 0
104 850 0
-849 850 0
-104 849 -850 0
661 -851 0
841 -851 0
850 -851 0
-661 -841 -850 851 0
625 -852 0
-98 -852 0
-625 98 852 0
852 853 0
-851 853 0
-852 851 -853 0
162 854 0
-168 854 0
-162 168 -854 0
168 855 0
-162 855 0
-168 162 -855 0
854 -856 0
855 -856 0
-854 -855 856 0
163 857 0
-169 857 0
-163 169 -857 0
169 858 0
-163 858 0
-169 163 -858 0
857 -859 0
858 -859 0
-857 -858 859 0
856 -860 0
859 -860 0
-856 -859 860 0
625 -861 0
98 -861 0
-625 -98 861 0
860 -862 0
832 -862 0
-860 -832 862 0
861 863 0
-862 863 0
-861 862 -863 0
632 -864 0
853 -864 0
863 -864 0
-632 -853 -863 864 0
-90 865 0
-864 865 0
90 864 -865 0
160 866 0
-168 866 0
-160 168 -866 0
168 867 0
-160 867 0
-168 160 -867 0
866 -868 0
867 -868 0
-866 -867 868 0
161 869 0
-169 869 0
-161 169 -869 0
169 870 0
-161 870 0
-169 161 -870 0
869 -871 0
870 -871 0
-869 -870 871 0
868 -872 0
871 -872 0
-868 -871 872 0
872 -873 0
764 -873 0
-872 -764 873 0
90 874 0
-873 874 0
-90 873 -874 0
595 -875 0
865 -875 0
874 -875 0
-595 -865 -874 875 0
559 -876 0
-84 -876 0
-559 84 876 0
876 877 0
-875 877 0
-876 875 -877 0
158 878 0
-168 878 0
-158 168 -878 0
168 879 0
-158 879 0
-168 158 -879 0
878 -880 0
879 -880 0
-878 -879 880 0
159 881 0
-169 881 0
-159 169 -881 0
169 882 0
-159 882 0
-169 159 -882 0
881 -883 0
882 -883 0
-881 -882 883 0
880 -884 0
883 -884 0
-880 -883 884 0
559 -885 0
84 -885 0
-559 -84 885 0
884 -886 0
832 -886 0
-884 -832 886 0
885 887 0
-886 887 0
-885 886 -887 0
566 -888 0
877 -888 0
887 -888 0
-566 -877 -887 888 0
-76 889 0
-888 889 0
76 888 -889 0
156 890 0
-168 890 0
-156 168 -890 0
168 891 0
-156 891 0
-168 156 -891 0
890 -892 0
891 -892 0
-890 -891 892 0
157 893 0
-169 893 0
-157 169 -893 0
169 894 0
-157 894 0
-169 157 -894 0
893 -895 0
894 -895 0
-893 -894 895 0
892 -896 0
895 -896 0
-892 -895 896 0
896 -897 0
764 -897 0
-896 -764 897 0
76 898 0
-897 898 0
-76 897 -898 0
529 -899 0
889 -899 0
898 -899 0
-529 -889 -898 899 0
493 -900 0
-70 -900 0
-493 70 900 0
900 901 0
-899 901 0
-900 899 -901 0
154 902 0
-168 902 0
-154 168 -902 0
168 903 0
-154 903 0
-168 154 -903 0
902 -904 0
903 -904 0
-902 -903 904 0
155 905 0
-169 905 0
-155 169 -905 0
169 906 0
-155 906 0
-169 155 -906 0
905 -907 0
906 -907 0
-905 -906 907 0
904 -908 0
907 -908 0
-904 -907 908 0
493 -909 0
70 -909 0
-493 -70 909 0
908 -910 0
832 -910 0
-908 -832 910 0
909 911 0
-910 911 0
-909 910 -911 0
500 -912 0
901 -912 0
911 -912 0
-500 -901 -911 912 0
-62 913 0
-912 913 0
62 912 -913 0
152 914 0
-168 914 0
-152 168 -914 0
168 915 0
-152 915 0
-168 152 -915 0
914 -916 0
915 -916 0
-914 -915 916 0
153 917 0
-169 917 0
-153 169 -917 0
169 918 0
-153 918 0
-169 153 -918 0
917 -919 0
918 -919 0
-917 -918 919 0
916 -920 0
919 -920 0
-916 -919 920 0
920 -921 0
764 -921 0
-920 -764 921 0
62 922 0
-921 922 0
-62 921 -922 0
463 -923 0
913 -923 0
922 -923 0
-463 -913 -922 923 0
427 -924 0
-56 -924 0
-427 56 924 0
924 925 0
-923 925 0
-924 923 -925 0
150 926 0
-168 926 0
-150 168 -926 0
168 927 0
-150 927 0
-168 150 -927 0
926 -928 0
927 -928 0
-926 -927 928 0
151 929 0
-169 929 0
-151 169 -929 0
169 930 0
-151 930 0
-169 151 -930 0
929 -931 0
930 -931 0
-929 -930 931 0
928 -932 0
931 -932 0
-928 -931 932 0
427 -933 0
56 -933 0
-427 -56 933 0
932 -934 0
832 -934 0
-932 -832 934 0
933 935 0
-934 935 0
-933 934 -935 0
434 -936 0
925 -936 0
935 -936 0
-434 -925 -935 936 0
-48 937 0
-936 937 0
48 936 -937 0
148 938 0
-168 938 0
-148 168 -938 0
168 939 0
-148 939 0
-168 148 -939 0
938 -940 0
939 -940 0
-938 -939 940 0
149 941 0
-169 941 0
-149 169 -941 0
169 942 0
-149 942 0
-169 149 -942 0
941 -943 0
942 -943 0
-941 -942 943 0
940 -944 0
943 -944 0
-940 -943 944 0
944 -945 0
764 -945 0
-944 -764 945 0
48 946 0
-945 946 0
-48 945 -946 0
397 -947 0
937 -947 0
946 -947 0
-397 -937 -946 947 0
361 -948 0
-42 -948 0
-361 42 948 0
948 949 0
-947 949 0
-948 947 -949 0
146 950 0
-168 950 0
-146 168 -950 0
168 951 0
-146 951 0
-168 146 -951 0
950 -952 0
951 -952 0
-950 -951 952 0
147 953 0
-169 953 0
-147 169 -953 0
169 954 0
-147 954 0
-169 147 -954 0
953 -955 0
954 -955 0
-953 -954 955 0
952 -956 0
955 -956 0
-952 -955 956 0
361 -957 0
42 -957 0
-361 -42 957 0
956 -958 0
832 -958 0
-956 -832 958 0
957 959 0
-958 959 0
-957 958 -959 0
368 -960 0
949 -960 0
959 -960 0
-368 -949 -959 960 0
-34 961 0
-960 961 0
34 960 -961 0
144 962 0
-168 962 0
-144 168 -962 0
168 963 0
-144 963 0
-168 144 -963 0
962 -964 0
963 -964 0
-962 -963 964 0
145 965 0
-169 965 0
-145 169 -965 0
169 966 0
-145 966 0
-169 145 -966 0
965 -967 0
966 -967 0
-965 -966 967 0
964 -968 0
967 -968 0
-964 -967 968 0
968 -969 0
764 -969 0
-968 -764 969 0
34 970 0
-969 970 0
-34 969 -970 0
331 -971 0
961 -971 0
970 -971 0
-331 -961 -970 971 0
295 -972 0
-28 -972 0
-295 28 972 0
972 973 0
-971 973 0
-972 971 -973 0
142 974 0
-168 974 0
-142 168 -974 0
168 975 0
-142 975 0
-168 142 -975 0
974 -976 0
975 -976 0
-974 -975 976 0
143 977 0
-169 977 0
-143 169 -977 0
169 978 0
-143 978 0
-169 143 -978 0
977 -979 0
978 -979 0
-977 -978 979 0
976 -980 0
979 -980 0
-976 -979 980 0
295 -981 0
28 -981 0
-295 -28 981 0
980 -982 0
832 -982 0
-980 -832 982 0
981 983 0
-982 983 0
-981 982 -983 0
302 -984 0
973 -984 0
983 -984 0
-302 -973 -983 984 0
-20 985 0
-984 985 0
20 984 -985 0
140 986 0
-168 986 0
-140 168 -986 0
168 987 0
-140 987 0
-168 140 -987 0
986 -988 0
987 -988 0
-986 -987 988 0
141 989 0
-169 989 0
-141 169 -989 0
169 990 0
-141 990 0
-169 141 -990 0
989 -991 0
990 -991 0
-989 -990 991 0
988 -992 0
991 -992 0
-988 -991 992 0
992 -993 0
764 -993 0
-992 -764 993 0
20 994 0
-993 994 0
-20 993 -994 0
265 -995 0
985 -995 0
994 -995 0
-265 -985 -994 995 0
229 -996 0
-14 -996 0
-229 14 996 0
996 997 0
-995 997 0
-996 995 -997 0
138 998 0
-168 998 0
-138 168 -998 0
168 999 0
-138 999 0
-168 138 -999 0
998 -1000 0
999 -1000 0
-998 -999 1000 0
139 1001 0
-169 1001 0
-139 169 -1001 0
169 1002 0
-139 1002 0
-169 139 -1002 0
1001 -1003 0
1002 -1003 0
-1001 -1002 1003 0
1000 -1004 0
1003 -1004 0
-1000 -1003 1004 0
229 -1005 0
14 -1005 0
-229 -14 1005 0
1004 -1006 0
832 -1006 0
-1004 -832 1006 0
1005 1007 0
-1006 1007 0
-1005 1006 -1007 0
236 -1008 0
997 -1008 0
1007 -1008 0
-236 -997 -1007 1008 0
-6 1009 0
-1008 1009 0
6 1008 -1009 0
136 1010 0
-168 1010 0
-136 168 -1010 0
168 1011 0
-136 1011 0
-168 136 -1011 0
1010 -1012 0
1011 -1012 0
-1010 -1011 1012 0
137 1013 0
-169 1013 0
-137 169 -1013 0
169 1014 0
-137 1014 0
-169 137 -1014 0
1013 -1015 0
1014 -1015 0
-1013 -1014 1015 0
1012 -1016 0
1015 -1016 0
-1012 -1015 1016 0
1016 -1017 0
764 -1017 0
-1016 -764 1017 0
6 1018 0
-1017 1018 0
-6 1017 -1018 0
198 -1019 0
1009 -1019 0
1018 -1019 0
-198 -1009 -1018 1019 0
-134 -1020 0
833 -1020 0
1019 -1020 0
134 -833 -1019 1020 0
1020 0

